10  5   1.15
1 5   1   2   23  1   3   45  1   1   82  1   5   84  2   4   38  3   38
4 0 1 2 4
1 5   1   3   21  1   2   29  1   1   18  1   5   41  1   4   50
2 1 3
1 5   1   3   38  1   4   54  2   5   16  1   16  1   1   52  1   2   52
3 0 1 4
1 5   1   5   37  2   1   54  4   54  1   3   74  1   2   62  1   4   57
3 0 3 4
3 5   1   5   57  2   1   81  3   81  1   2   61  1   4   68  1   3   30
3 1 3 4
2 0 1
2 3 4
2 5   1   5   81  1   1   79  2   2   89  5   89  1   3   89  1   4   11
2 3 4
2 2 4
1 5   2   4   33  2   33  1   3   20  1   1   91  1   5   20  1   2   66
4 1 2 3 4
2 5   1   5   24  1   2   84  1   1   32  1   3   55  1   4   8
2 3 4
3 1 3 4
1 5   1   5   56  2   1   7   3   7   1   4   54  1   3   64  2   2   39  5   39
4 0 1 3 4
1 5   1   5   40  1   2   83  1   1   19  2   3   8   4   8   1   4   7
2 2 4
